NAME : ./TSPLIB/ftv170.tsp.optbc.tour
TYPE : TOUR
DIMENSION : 171
TOUR_SECTION
95
97
166
164
100
101
102
124
163
123
122
121
103
104
105
115
116
117
118
119
120
125
147
146
145
144
148
149
150
162
153
143
142
135
132
114
165
128
127
126
130
129
131
136
137
138
139
140
141
7
8
9
10
11
77
75
76
12
13
14
18
30
23
22
33
159
37
158
34
32
31
29
28
27
24
25
26
151
161
152
15
16
160
17
19
20
21
38
39
40
41
157
36
35
156
42
43
45
46
47
48
49
52
53
54
44
56
55
59
60
67
64
66
65
57
58
63
62
69
70
68
168
71
93
92
155
90
91
89
154
88
86
87
94
167
109
84
85
72
61
51
50
171
169
73
74
78
79
83
80
81
82
1
2
3
4
5
6
134
170
113
133
112
111
110
108
107
106
98
99
96
-1